# Objective value = 1.0999999998889996e+02
y 1.0999999998889996e+02
x1 25
r1 0
y1 7.8999999988900072e+01
x2 0
r2 0
y2 2.9999999988900086e+01
x3 67
r3 1
y3 38.9999999889001
x4 27
r4 0
y4 51.9999999889001
x5 83
r5 1
y5 51.9999999889001
x6 45
r6 1
y6 33
x7 0
r7 1
y7 1.6999999988900115e+01
x8 63
r8 1
y8 25.9999999889001
x9 14
r9 1
y9 9.1999999988900058e+01
x10 77
y10 64.9999999889001
x11 118
r11 0
y11 0
x12 58
r12 0
y12 8.0999999988900058e+01
x13 13
y13 2.9999999988900115e+01
x14 139
r14 1
y14 18
x15 23
r15 1
y15 11
x16 113
r16 0
y16 9.8999999988900058e+01
x17 30
r17 0
y17 64.9999999889001
x18 14
r18 0
y18 42
x19 2
r19 1
y19 0
x20 0
r20 0
y20 6.9999999988899987e+01
x21 98
r21 0
y21 26
x22 44
r22 0
y22 22
x23 121
r23 0
y23 88
x24 25
r24 0
y24 40
x25 107
r25 0
y25 0
x26 99
r26 1
y26 75
x27 2
r27 1
y27 5.8999999988900029e+01
x28 112
r28 1
y28 38
x29 24
r29 1
y29 22
x30 130
r30 1
y30 0
x31 23
r31 0
y31 0
x32 132
r32 0
y32 53
x33 46
r33 0
y33 6.4999999988900072e+01
p12 1
q12 0
p13 0
q13 0
p14 1
q14 1
p15 0
q15 0
p16 1
q16 1
p17 1
q17 0
p18 1
q18 1
p19 0
q19 1
p110 0
q110 0
p111 0
q111 0
p112 0
q112 0
p113 1
q113 1
p114 1
q114 1
p115 1
q115 1
p116 0
q116 0
p117 1
q117 1
p118 1
q118 0
p119 1
q119 0
p120 1
q120 0
p121 0
q121 0
p122 1
q122 1
p123 0
q123 0
p124 1
q124 1
p125 0
q125 0
p126 0
q126 0
p127 1
q127 0
p128 0
q128 0
p129 1
q129 1
p130 0
q130 0
p131 1
q131 1
p132 0
q132 0
p133 1
q133 1
p23 0
q23 0
p24 0
q24 0
p25 0
q25 0
p26 0
q26 0
p27 1
q27 1
p28 0
q28 0
p29 0
q29 0
p210 0
q210 0
p211 0
q211 0
p212 0
q212 0
p213 0
q213 0
p214 0
q214 0
p215 0
q215 0
p216 0
q216 0
p217 0
q217 0
p218 0
q218 0
p219 1
q219 1
p220 0
q220 1
p221 0
q221 0
p222 0
q222 0
p223 0
q223 1
p224 0
q224 0
p225 0
q225 0
p226 0
q226 0
p227 0
q227 1
p228 0
q228 0
p229 0
q229 0
p230 0
q230 0
p231 1
q231 1
p232 0
q232 0
p233 0
q233 0
p34 0
q34 1
p35 0
q35 1
p36 1
q36 0
p37 1
q37 0
p38 1
q38 1
p39 0
q39 1
p310 0
q310 1
p311 1
q311 1
p312 0
q312 1
p313 1
q313 0
p314 0
q314 0
p315 1
q315 1
p316 0
q316 0
p317 1
q317 0
p318 1
q318 0
p319 1
q319 1
p320 1
q320 0
p321 0
q321 0
p322 1
q322 1
p323 0
q323 1
p324 1
q324 0
p325 0
q325 0
p326 0
q326 1
p327 1
q327 0
p328 0
q328 0
p329 1
q329 0
p330 0
q330 0
p331 1
q331 1
p332 0
q332 0
p333 0
q333 1
p45 0
q45 0
p46 1
q46 1
p47 1
q47 0
p48 1
q48 1
p49 0
q49 1
p410 0
q410 1
p411 1
q411 1
p412 0
q412 1
p413 1
q413 1
p414 0
q414 0
p415 1
q415 1
p416 0
q416 1
p417 0
q417 1
p418 1
q418 0
p419 1
q419 0
p420 1
q420 0
p421 0
q421 0
p422 1
q422 1
p423 0
q423 0
p424 1
q424 1
p425 1
q425 1
p426 0
q426 0
p427 1
q427 0
p428 0
q428 0
p429 1
q429 1
p430 1
q430 1
p431 1
q431 1
p432 0
q432 0
p433 0
q433 1
p56 1
q56 0
p57 1
q57 0
p58 1
q58 1
p59 0
q59 1
p510 0
q510 1
p511 1
q511 1
p512 1
q512 0
p513 1
q513 0
p514 0
q514 0
p515 1
q515 1
p516 0
q516 0
p517 1
q517 0
p518 1
q518 0
p519 1
q519 0
p520 1
q520 0
p521 0
q521 0
p522 1
q522 1
p523 0
q523 0
p524 1
q524 0
p525 1
q525 1
p526 0
q526 0
p527 1
q527 0
p528 0
q528 0
p529 1
q529 0
p530 0
q530 0
p531 1
q531 1
p532 0
q532 0
p533 1
q533 0
p67 1
q67 0
p68 0
q68 0
p69 0
q69 1
p610 0
q610 0
p611 0
q611 0
p612 0
q612 0
p613 1
q613 0
p614 0
q614 0
p615 1
q615 1
p616 0
q616 0
p617 0
q617 1
p618 1
q618 0
p619 1
q619 0
p620 1
q620 0
p621 0
q621 0
p622 1
q622 1
p623 0
q623 0
p624 1
q624 0
p625 0
q625 0
p626 0
q626 0
p627 0
q627 1
p628 0
q628 0
p629 1
q629 0
p630 0
q630 0
p631 1
q631 1
p632 0
q632 1
p633 0
q633 1
p78 0
q78 0
p79 0
q79 1
p710 0
q710 0
p711 0
q711 0
p712 0
q712 0
p713 0
q713 1
p714 0
q714 0
p715 0
q715 0
p716 0
q716 0
p717 0
q717 0
p718 0
q718 1
p719 1
q719 1
p720 0
q720 1
p721 0
q721 0
p722 0
q722 0
p723 0
q723 0
p724 0
q724 0
p725 0
q725 0
p726 0
q726 0
p727 0
q727 1
p728 0
q728 0
p729 0
q729 0
p730 0
q730 0
p731 1
q731 1
p732 0
q732 0
p733 0
q733 0
p89 0
q89 1
p810 0
q810 1
p811 0
q811 0
p812 0
q812 1
p813 1
q813 0
p814 0
q814 0
p815 1
q815 1
p816 0
q816 0
p817 0
q817 1
p818 1
q818 0
p819 1
q819 0
p820 1
q820 0
p821 0
q821 0
p822 1
q822 0
p823 0
q823 0
p824 0
q824 1
p825 0
q825 0
p826 0
q826 1
p827 1
q827 0
p828 0
q828 0
p829 1
q829 0
p830 0
q830 0
p831 1
q831 1
p832 0
q832 0
p833 0
q833 1
p910 1
q910 1
p911 0
q911 0
p912 1
q912 1
p913 1
q913 1
p914 0
q914 0
p915 1
q915 1
p916 0
q916 0
p917 1
q917 1
p918 1
q918 1
p919 1
q919 0
p920 1
q920 0
p921 1
q921 1
p922 1
q922 1
p923 0
q923 0
p924 1
q924 1
p925 1
q925 1
p926 1
q926 1
p927 1
q927 1
p928 0
q928 0
p929 1
q929 1
p930 0
q930 0
p931 1
q931 1
p932 1
q932 1
p933 1
q933 1
p1011 0
q1011 0
p1012 1
q1012 0
p1013 1
q1013 0
p1014 0
q1014 0
p1015 1
q1015 1
p1016 0
q1016 0
p1017 1
q1017 0
p1018 1
q1018 0
p1019 1
q1019 0
p1020 1
q1020 0
p1021 0
q1021 0
p1022 1
q1022 1
p1023 0
q1023 0
p1024 1
q1024 0
p1025 0
q1025 0
p1026 0
q1026 0
p1027 1
q1027 0
p1028 0
q1028 0
p1029 1
q1029 0
p1030 1
q1030 1
p1031 1
q1031 1
p1032 0
q1032 0
p1033 1
q1033 0
p1112 1
q1112 0
p1113 1
q1113 0
p1114 0
q1114 0
p1115 1
q1115 0
p1116 0
q1116 1
p1117 0
q1117 1
p1118 1
q1118 0
p1119 1
q1119 0
p1120 0
q1120 1
p1121 1
q1121 0
p1122 1
q1122 0
p1123 0
q1123 1
p1124 1
q1124 0
p1125 1
q1125 0
p1126 0
q1126 1
p1127 0
q1127 1
p1128 0
q1128 1
p1129 1
q1129 0
p1130 0
q1130 0
p1131 1
q1131 0
p1132 0
q1132 0
p1133 0
q1133 1
p1213 1
q1213 0
p1214 0
q1214 0
p1215 1
q1215 1
p1216 0
q1216 0
p1217 1
q1217 0
p1218 1
q1218 0
p1219 1
q1219 1
p1220 1
q1220 0
p1221 0
q1221 0
p1222 1
q1222 1
p1223 0
q1223 0
p1224 1
q1224 0
p1225 1
q1225 1
p1226 0
q1226 0
p1227 1
q1227 0
p1228 1
q1228 1
p1229 1
q1229 1
p1230 0
q1230 0
p1231 1
q1231 1
p1232 0
q1232 0
p1233 1
q1233 1
p1314 0
q1314 0
p1315 1
q1315 1
p1316 0
q1316 0
p1317 0
q1317 1
p1318 0
q1318 1
p1319 1
q1319 1
p1320 0
q1320 1
p1321 0
q1321 0
p1322 0
q1322 0
p1323 0
q1323 0
p1324 0
q1324 0
p1325 0
q1325 0
p1326 0
q1326 0
p1327 0
q1327 1
p1328 0
q1328 0
p1329 0
q1329 0
p1330 0
q1330 0
p1331 1
q1331 1
p1332 0
q1332 0
p1333 0
q1333 0
p1415 1
q1415 0
p1416 0
q1416 1
p1417 1
q1417 0
p1418 1
q1418 0
p1419 1
q1419 0
p1420 1
q1420 0
p1421 1
q1421 0
p1422 1
q1422 0
p1423 0
q1423 1
p1424 1
q1424 0
p1425 1
q1425 0
p1426 0
q1426 1
p1427 1
q1427 0
p1428 1
q1428 0
p1429 1
q1429 0
p1430 1
q1430 1
p1431 1
q1431 0
p1432 0
q1432 1
p1433 0
q1433 1
p1516 0
q1516 1
p1517 0
q1517 1
p1518 0
q1518 1
p1519 1
q1519 0
p1520 0
q1520 1
p1521 0
q1521 1
p1522 0
q1522 1
p1523 0
q1523 1
p1524 0
q1524 1
p1525 0
q1525 0
p1526 0
q1526 1
p1527 1
q1527 0
p1528 0
q1528 0
p1529 0
q1529 1
p1530 0
q1530 0
p1531 1
q1531 1
p1532 0
q1532 0
p1533 0
q1533 1
p1617 1
q1617 0
p1618 1
q1618 0
p1619 1
q1619 0
p1620 1
q1620 0
p1621 1
q1621 1
p1622 1
q1622 1
p1623 1
q1623 1
p1624 1
q1624 0
p1625 1
q1625 1
p1626 1
q1626 1
p1627 1
q1627 1
p1628 1
q1628 1
p1629 1
q1629 0
p1630 1
q1630 1
p1631 1
q1631 0
p1632 1
q1632 1
p1633 1
q1633 0
p1718 1
q1718 0
p1719 1
q1719 0
p1720 1
q1720 0
p1721 0
q1721 0
p1722 1
q1722 1
p1723 0
q1723 0
p1724 1
q1724 1
p1725 1
q1725 1
p1726 0
q1726 0
p1727 1
q1727 0
p1728 0
q1728 0
p1729 1
q1729 1
p1730 0
q1730 0
p1731 1
q1731 1
p1732 0
q1732 0
p1733 0
q1733 0
p1819 1
q1819 0
p1820 1
q1820 0
p1821 0
q1821 0
p1822 0
q1822 0
p1823 0
q1823 0
p1824 0
q1824 0
p1825 1
q1825 1
p1826 0
q1826 0
p1827 1
q1827 0
p1828 0
q1828 0
p1829 1
q1829 1
p1830 1
q1830 1
p1831 1
q1831 1
p1832 0
q1832 0
p1833 0
q1833 0
p1920 0
q1920 1
p1921 0
q1921 0
p1922 0
q1922 0
p1923 0
q1923 0
p1924 0
q1924 0
p1925 0
q1925 0
p1926 0
q1926 0
p1927 0
q1927 1
p1928 0
q1928 0
p1929 0
q1929 0
p1930 0
q1930 0
p1931 0
q1931 0
p1932 0
q1932 0
p1933 0
q1933 0
p2021 0
q2021 0
p2022 0
q2022 0
p2023 0
q2023 0
p2024 0
q2024 0
p2025 1
q2025 1
p2026 0
q2026 0
p2027 1
q2027 1
p2028 0
q2028 0
p2029 0
q2029 0
p2030 0
q2030 0
p2031 1
q2031 1
p2032 0
q2032 0
p2033 0
q2033 0
p2122 1
q2122 0
p2123 0
q2123 0
p2124 1
q2124 0
p2125 1
q2125 1
p2126 0
q2126 1
p2127 1
q2127 0
p2128 0
q2128 0
p2129 1
q2129 0
p2130 1
q2130 1
p2131 1
q2131 1
p2132 0
q2132 0
p2133 1
q2133 0
p2223 0
q2223 0
p2224 0
q2224 1
p2225 0
q2225 0
p2226 0
q2226 1
p2227 1
q2227 0
p2228 0
q2228 0
p2229 1
q2229 0
p2230 1
q2230 1
p2231 1
q2231 1
p2232 0
q2232 0
p2233 0
q2233 1
p2324 1
q2324 0
p2325 1
q2325 0
p2326 1
q2326 1
p2327 1
q2327 0
p2328 1
q2328 1
p2329 1
q2329 0
p2330 1
q2330 1
p2331 1
q2331 0
p2332 1
q2332 1
p2333 1
q2333 0
p2425 0
q2425 0
p2426 0
q2426 0
p2427 1
q2427 0
p2428 0
q2428 0
p2429 1
q2429 1
p2430 1
q2430 1
p2431 1
q2431 1
p2432 0
q2432 0
p2433 0
q2433 0
p2526 0
q2526 1
p2527 1
q2527 0
p2528 0
q2528 1
p2529 1
q2529 0
p2530 0
q2530 0
p2531 1
q2531 0
p2532 0
q2532 0
p2533 1
q2533 0
p2627 1
q2627 1
p2628 1
q2628 1
p2629 1
q2629 0
p2630 1
q2630 1
p2631 1
q2631 1
p2632 0
q2632 0
p2633 1
q2633 0
p2728 0
q2728 0
p2729 0
q2729 0
p2730 0
q2730 0
p2731 0
q2731 0
p2732 0
q2732 0
p2733 0
q2733 0
p2829 1
q2829 0
p2830 0
q2830 0
p2831 1
q2831 0
p2832 0
q2832 0
p2833 1
q2833 0
p2930 1
q2930 1
p2931 1
q2931 1
p2932 0
q2932 0
p2933 0
q2933 1
p3031 1
q3031 0
p3032 0
q3032 1
p3033 0
q3033 1
p3132 0
q3132 0
p3133 0
q3133 1
p3233 1
q3233 0
r10 0
r13 0
